code/experiments/gr21/gr21_n15.tsp
NAME: gr21_n15
TYPE: TSP
COMMENT: 15-city problem (Groetschel)
DIMENSION: 15
EDGE_WEIGHT_TYPE: EXPLICIT
EDGE_WEIGHT_FORMAT: LOWER_DIAG_ROW 
EDGE_WEIGHT_SECTION
0
510	0
635	355	0
91	415	605	0
385	585	390	350	0
155	475	495	120	240	0
110	480	570	78	320	96	0
130	500	540	97	285	36	29	0
490	605	295	460	120	350	425	390	0
370	320	700	280	590	365	350	370	625	0
155	380	640	63	430	200	160	175	535	240	0
68	440	575	27	320	91	48	67	430	300	90	0
610	360	705	520	835	605	590	610	865	250	480	545	0
655	235	585	555	750	615	625	645	775	285	515	585	190	0
480	81	435	380	575	440	455	465	600	245	345	415	295	170	0                                   
EOF            
