code/experiments/gr21/gr21_n15.opt.tour
15
0 11 3 10 9 12 13 14 1 2 
8 4 5 7 6 
